NAME : portcgen-24-9
COMMENT : portcgen N=24, seed=9
TYPE : TSP
DIMENSION : 24
EDGE_WEIGHT_TYPE : EUC_2D
NODE_COORD_SECTION
1 -6333 244523
2 323339 126368
3 -232809 164117
4 61951 -76986
5 -40555 -116652
6 73740 -47247
7 -166934 139786
8 -116637 -38345
9 147019 5576
10 -116093 84842
11 45319 204007
12 -56557 297062
13 297639 -82213
14 -37009 26457
15 470303 21862
16 -227240 194377
17 -95464 539330
18 -102485 5473
19 -180232 265169
20 274931 6630
21 76786 26476
22 91042 -76704
23 118384 -102329
24 82845 -101304
